85301.0
1891
1 3 5 6 7 8 9 10 11 14 16 17 18 19 20 22 23 24 25 26 28 30 32 33 35 36 38 39 40 42 43 44 47 49 50 51 52 53 54 56 57 58 59 60 61 63 64 65 66 67 69 70 71 72 73 74 76 77 78 79 80 81 82 84 86 88 92 93 95 97 